9
0 6 90 92 93 83 70 89 61 
1 0 91 97 78 67 54 98 65 
38 98 0 5 66 28 92 21 66 
14 95 88 0 36 34 81 76 57 
86 6 84 19 0 61 16 40 92 
81 79 98 14 47 0 50 23 14 
27 90 65 30 67 75 0 50 67 
77 92 69 18 46 62 88 0 41 
42 40 65 50 2 82 25 48 0 
